p wcnf 115 230 231 
1 50 -53 0 
1 -115 95 0 
1 73 35 0 
1 -66 7 0 
1 -5 68 0 
1 50 -109 0 
1 68 -41 0 
1 8 102 0 
1 86 -44 0 
1 91 -113 0 
1 27 66 0 
1 106 -12 0 
1 2 -39 0 
1 53 52 0 
1 -42 -87 0 
1 -79 -42 0 
1 80 109 0 
1 -108 -64 0 
1 105 -103 0 
1 -101 68 0 
1 79 65 0 
1 103 -62 0 
1 -110 -114 0 
1 12 6 0 
1 -81 106 0 
1 -31 -14 0 
1 -38 -25 0 
1 6 25 0 
1 -45 78 0 
1 -76 6 0 
1 -28 -9 0 
1 -28 100 0 
1 -90 -102 0 
1 61 -55 0 
1 57 -54 0 
1 -54 18 0 
1 -97 59 0 
1 -37 -69 0 
1 -20 -22 0 
1 33 76 0 
1 -108 -79 0 
1 -107 36 0 
1 -36 14 0 
1 -98 12 0 
1 103 -54 0 
1 5 -88 0 
1 -19 -26 0 
1 71 -44 0 
1 -105 -17 0 
1 -102 -108 0 
1 24 -86 0 
1 -95 87 0 
1 -9 10 0 
1 115 -53 0 
1 -7 -115 0 
1 33 12 0 
1 -17 -21 0 
1 3 -73 0 
1 -3 -28 0 
1 106 -15 0 
1 -70 -78 0 
1 104 17 0 
1 67 -7 0 
1 92 -98 0 
1 -78 -6 0 
1 24 10 0 
1 -20 91 0 
1 -51 -101 0 
1 -64 83 0 
1 -50 -5 0 
1 69 100 0 
1 44 -39 0 
1 51 -67 0 
1 85 32 0 
1 27 -49 0 
1 29 -64 0 
1 -6 43 0 
1 -95 -44 0 
1 -62 -39 0 
1 -33 -70 0 
1 12 49 0 
1 67 22 0 
1 -20 -23 0 
1 96 -54 0 
1 68 -47 0 
1 48 33 0 
1 -106 -56 0 
1 -75 -27 0 
1 18 -41 0 
1 28 109 0 
1 23 84 0 
1 -55 40 0 
1 -85 -5 0 
1 -99 -52 0 
1 24 -34 0 
1 7 -3 0 
1 32 28 0 
1 -107 95 0 
1 44 -50 0 
1 -63 -10 0 
1 -38 29 0 
1 -82 -107 0 
1 -66 -24 0 
1 83 -21 0 
1 111 100 0 
1 -74 -104 0 
1 41 43 0 
1 102 -9 0 
1 110 105 0 
1 -53 68 0 
1 113 46 0 
1 8 -85 0 
1 -91 -87 0 
1 -48 -50 0 
1 66 110 0 
1 90 -94 0 
1 -44 -45 0 
1 75 -53 0 
1 99 -60 0 
1 113 -104 0 
1 88 43 0 
1 33 -55 0 
1 -60 -45 0 
1 -96 23 0 
1 62 -71 0 
1 -9 114 0 
1 -110 44 0 
1 -26 -17 0 
1 28 -40 0 
1 -89 -42 0 
1 -72 -33 0 
1 54 80 0 
1 -34 -110 0 
1 -103 63 0 
1 71 111 0 
1 -104 -110 0 
1 -47 -36 0 
1 -11 38 0 
1 -69 51 0 
1 -84 -6 0 
1 16 -8 0 
1 20 -82 0 
1 10 -62 0 
1 -15 72 0 
1 101 -59 0 
1 20 -75 0 
1 -97 114 0 
1 61 -78 0 
1 102 86 0 
1 -83 97 0 
1 57 -80 0 
1 104 -82 0 
1 -81 -38 0 
1 -60 95 0 
1 -67 18 0 
1 -27 52 0 
1 12 113 0 
1 -95 -37 0 
1 -50 79 0 
1 73 -11 0 
1 -18 83 0 
1 -88 103 0 
1 -81 -7 0 
1 -90 -49 0 
1 4 -77 0 
1 -102 46 0 
1 -8 77 0 
1 -34 -50 0 
1 115 -39 0 
1 95 -12 0 
1 96 6 0 
1 -88 -82 0 
1 -63 65 0 
1 -87 -8 0 
1 -108 1 0 
1 54 -46 0 
1 -67 28 0 
1 48 -41 0 
1 35 76 0 
1 8 47 0 
1 97 -104 0 
1 -50 -4 0 
1 31 111 0 
1 26 -60 0 
1 -6 23 0 
1 -3 105 0 
1 -64 -85 0 
1 7 -94 0 
1 -16 -61 0 
1 -55 -93 0 
1 -61 15 0 
1 -11 -78 0 
1 52 2 0 
1 -6 14 0 
1 41 98 0 
1 24 19 0 
1 8 -38 0 
1 56 7 0 
1 -10 -111 0 
1 68 -92 0 
1 -45 19 0 
1 -3 93 0 
1 -8 -31 0 
1 -72 1 0 
1 106 65 0 
1 -111 -52 0 
1 -8 115 0 
1 -97 -28 0 
1 17 -52 0 
1 85 -94 0 
1 -76 21 0 
1 48 78 0 
1 39 -106 0 
1 58 -53 0 
1 -41 55 0 
1 -8 -77 0 
1 95 -64 0 
1 39 59 0 
1 -55 107 0 
1 -19 104 0 
1 -46 -107 0 
1 63 87 0 
1 -10 -68 0 
1 -48 -103 0 
1 -93 2 0 
1 -29 94 0 
1 -25 54 0 
1 -71 -33 0 
1 69 -31 0 
1 -32 37 0 
